c description: Graph 3-Colorability of graph: 
c generator: CNFgen (0.9.0)
c copyright: (C) 2012-2020 Massimo Lauria <massimo.lauria@uniroma1.it>
c url: https://massimolauria.net/cnfgen
c
p cnf 150 500
1 2 3 0
-1 -2 0
-1 -3 0
-2 -3 0
4 5 6 0
-4 -5 0
-4 -6 0
-5 -6 0
7 8 9 0
-7 -8 0
-7 -9 0
-8 -9 0
10 11 12 0
-10 -11 0
-10 -12 0
-11 -12 0
13 14 15 0
-13 -14 0
-13 -15 0
-14 -15 0
16 17 18 0
-16 -17 0
-16 -18 0
-17 -18 0
19 20 21 0
-19 -20 0
-19 -21 0
-20 -21 0
22 23 24 0
-22 -23 0
-22 -24 0
-23 -24 0
25 26 27 0
-25 -26 0
-25 -27 0
-26 -27 0
28 29 30 0
-28 -29 0
-28 -30 0
-29 -30 0
31 32 33 0
-31 -32 0
-31 -33 0
-32 -33 0
34 35 36 0
-34 -35 0
-34 -36 0
-35 -36 0
37 38 39 0
-37 -38 0
-37 -39 0
-38 -39 0
40 41 42 0
-40 -41 0
-40 -42 0
-41 -42 0
43 44 45 0
-43 -44 0
-43 -45 0
-44 -45 0
46 47 48 0
-46 -47 0
-46 -48 0
-47 -48 0
49 50 51 0
-49 -50 0
-49 -51 0
-50 -51 0
52 53 54 0
-52 -53 0
-52 -54 0
-53 -54 0
55 56 57 0
-55 -56 0
-55 -57 0
-56 -57 0
58 59 60 0
-58 -59 0
-58 -60 0
-59 -60 0
61 62 63 0
-61 -62 0
-61 -63 0
-62 -63 0
64 65 66 0
-64 -65 0
-64 -66 0
-65 -66 0
67 68 69 0
-67 -68 0
-67 -69 0
-68 -69 0
70 71 72 0
-70 -71 0
-70 -72 0
-71 -72 0
73 74 75 0
-73 -74 0
-73 -75 0
-74 -75 0
76 77 78 0
-76 -77 0
-76 -78 0
-77 -78 0
79 80 81 0
-79 -80 0
-79 -81 0
-80 -81 0
82 83 84 0
-82 -83 0
-82 -84 0
-83 -84 0
85 86 87 0
-85 -86 0
-85 -87 0
-86 -87 0
88 89 90 0
-88 -89 0
-88 -90 0
-89 -90 0
91 92 93 0
-91 -92 0
-91 -93 0
-92 -93 0
94 95 96 0
-94 -95 0
-94 -96 0
-95 -96 0
97 98 99 0
-97 -98 0
-97 -99 0
-98 -99 0
100 101 102 0
-100 -101 0
-100 -102 0
-101 -102 0
103 104 105 0
-103 -104 0
-103 -105 0
-104 -105 0
106 107 108 0
-106 -107 0
-106 -108 0
-107 -108 0
109 110 111 0
-109 -110 0
-109 -111 0
-110 -111 0
112 113 114 0
-112 -113 0
-112 -114 0
-113 -114 0
115 116 117 0
-115 -116 0
-115 -117 0
-116 -117 0
118 119 120 0
-118 -119 0
-118 -120 0
-119 -120 0
121 122 123 0
-121 -122 0
-121 -123 0
-122 -123 0
124 125 126 0
-124 -125 0
-124 -126 0
-125 -126 0
127 128 129 0
-127 -128 0
-127 -129 0
-128 -129 0
130 131 132 0
-130 -131 0
-130 -132 0
-131 -132 0
133 134 135 0
-133 -134 0
-133 -135 0
-134 -135 0
136 137 138 0
-136 -137 0
-136 -138 0
-137 -138 0
139 140 141 0
-139 -140 0
-139 -141 0
-140 -141 0
142 143 144 0
-142 -143 0
-142 -144 0
-143 -144 0
145 146 147 0
-145 -146 0
-145 -147 0
-146 -147 0
148 149 150 0
-148 -149 0
-148 -150 0
-149 -150 0
-1 -13 0
-2 -14 0
-3 -15 0
-1 -76 0
-2 -77 0
-3 -78 0
-1 -94 0
-2 -95 0
-3 -96 0
-4 -28 0
-5 -29 0
-6 -30 0
-4 -31 0
-5 -32 0
-6 -33 0
-4 -61 0
-5 -62 0
-6 -63 0
-4 -97 0
-5 -98 0
-6 -99 0
-4 -112 0
-5 -113 0
-6 -114 0
-7 -16 0
-8 -17 0
-9 -18 0
-7 -19 0
-8 -20 0
-9 -21 0
-7 -109 0
-8 -110 0
-9 -111 0
-10 -22 0
-11 -23 0
-12 -24 0
-10 -49 0
-11 -50 0
-12 -51 0
-10 -115 0
-11 -116 0
-12 -117 0
-13 -25 0
-14 -26 0
-15 -27 0
-13 -55 0
-14 -56 0
-15 -57 0
-13 -118 0
-14 -119 0
-15 -120 0
-16 -103 0
-17 -104 0
-18 -105 0
-19 -70 0
-20 -71 0
-21 -72 0
-19 -103 0
-20 -104 0
-21 -105 0
-19 -130 0
-20 -131 0
-21 -132 0
-19 -139 0
-20 -140 0
-21 -141 0
-22 -100 0
-23 -101 0
-24 -102 0
-25 -67 0
-26 -68 0
-27 -69 0
-25 -88 0
-26 -89 0
-27 -90 0
-25 -97 0
-26 -98 0
-27 -99 0
-25 -142 0
-26 -143 0
-27 -144 0
-28 -55 0
-29 -56 0
-30 -57 0
-28 -97 0
-29 -98 0
-30 -99 0
-28 -103 0
-29 -104 0
-30 -105 0
-28 -106 0
-29 -107 0
-30 -108 0
-31 -49 0
-32 -50 0
-33 -51 0
-31 -52 0
-32 -53 0
-33 -54 0
-34 -40 0
-35 -41 0
-36 -42 0
-34 -64 0
-35 -65 0
-36 -66 0
-34 -67 0
-35 -68 0
-36 -69 0
-34 -82 0
-35 -83 0
-36 -84 0
-37 -58 0
-38 -59 0
-39 -60 0
-37 -127 0
-38 -128 0
-39 -129 0
-37 -139 0
-38 -140 0
-39 -141 0
-37 -142 0
-38 -143 0
-39 -144 0
-40 -115 0
-41 -116 0
-42 -117 0
-40 -130 0
-41 -131 0
-42 -132 0
-43 -49 0
-44 -50 0
-45 -51 0
-43 -55 0
-44 -56 0
-45 -57 0
-43 -88 0
-44 -89 0
-45 -90 0
-43 -97 0
-44 -98 0
-45 -99 0
-43 -109 0
-44 -110 0
-45 -111 0
-43 -130 0
-44 -131 0
-45 -132 0
-46 -64 0
-47 -65 0
-48 -66 0
-46 -88 0
-47 -89 0
-48 -90 0
-46 -106 0
-47 -107 0
-48 -108 0
-46 -148 0
-47 -149 0
-48 -150 0
-49 -73 0
-50 -74 0
-51 -75 0
-49 -85 0
-50 -86 0
-51 -87 0
-49 -88 0
-50 -89 0
-51 -90 0
-49 -109 0
-50 -110 0
-51 -111 0
-52 -88 0
-53 -89 0
-54 -90 0
-52 -112 0
-53 -113 0
-54 -114 0
-52 -115 0
-53 -116 0
-54 -117 0
-52 -148 0
-53 -149 0
-54 -150 0
-58 -91 0
-59 -92 0
-60 -93 0
-61 -133 0
-62 -134 0
-63 -135 0
-64 -106 0
-65 -107 0
-66 -108 0
-67 -97 0
-68 -98 0
-69 -99 0
-67 -109 0
-68 -110 0
-69 -111 0
-67 -142 0
-68 -143 0
-69 -144 0
-70 -82 0
-71 -83 0
-72 -84 0
-73 -109 0
-74 -110 0
-75 -111 0
-73 -148 0
-74 -149 0
-75 -150 0
-76 -91 0
-77 -92 0
-78 -93 0
-79 -124 0
-80 -125 0
-81 -126 0
-82 -142 0
-83 -143 0
-84 -144 0
-85 -127 0
-86 -128 0
-87 -129 0
-85 -133 0
-86 -134 0
-87 -135 0
-88 -97 0
-89 -98 0
-90 -99 0
-88 -136 0
-89 -137 0
-90 -138 0
-91 -103 0
-92 -104 0
-93 -105 0
-91 -112 0
-92 -113 0
-93 -114 0
-91 -121 0
-92 -122 0
-93 -123 0
-91 -136 0
-92 -137 0
-93 -138 0
-94 -97 0
-95 -98 0
-96 -99 0
-94 -109 0
-95 -110 0
-96 -111 0
-97 -106 0
-98 -107 0
-99 -108 0
-97 -109 0
-98 -110 0
-99 -111 0
-97 -115 0
-98 -116 0
-99 -117 0
-100 -106 0
-101 -107 0
-102 -108 0
-100 -124 0
-101 -125 0
-102 -126 0
-100 -127 0
-101 -128 0
-102 -129 0
-103 -130 0
-104 -131 0
-105 -132 0
-106 -118 0
-107 -119 0
-108 -120 0
-106 -136 0
-107 -137 0
-108 -138 0
-109 -133 0
-110 -134 0
-111 -135 0
-112 -115 0
-113 -116 0
-114 -117 0
-112 -136 0
-113 -137 0
-114 -138 0
-118 -121 0
-119 -122 0
-120 -123 0
-118 -148 0
-119 -149 0
-120 -150 0
-121 -133 0
-122 -134 0
-123 -135 0
-130 -145 0
-131 -146 0
-132 -147 0
-139 -142 0
-140 -143 0
-141 -144 0